Na3 Y3 Se6 
1.000000
   0.00000000000000  -4.08872373624427   0.00000000000000
   0.59754958724095   2.04436186812213  -3.49015484388352
  20.38522173620360   0.00000000000000   3.49015484388352
Na Y Se 
3 3 6 
Direct(12) [A3B3C6] 
   0.00000000000000   0.00000000000000   0.00000000000000  Na    
   0.66666666666667   0.33333333333333   0.33333333333333  Na    
   0.33333333333333   0.66666666666667   0.66666666666667  Na    
   0.33333333333333   0.66666666666667   0.16666666666667  Y     
  -0.00000000000000  -0.00000000000000   0.50000000000000  Y     
   0.66666666666667   0.33333333333333   0.83333333333333  Y     
   0.00000000000000   0.00000000000000   0.24352126281681  Se    
   0.66666666666667   0.33333333333333   0.57685459615014  Se    
   0.33333333333333   0.66666666666667   0.91018792948347  Se    
   0.66666666666667   0.33333333333333   0.08981207051653  Se    
   0.33333333333333   0.66666666666667   0.42314540384986  Se    
  -0.00000000000000  -0.00000000000000   0.75647873718319  Se    
